### Graphite - Optimizing geometry

#Unit grid
acell      5.2228133998  5.2228133998 30 # In Bohr radii ; scaling for primitive vectors
                          # @see Cooper, 2012 for initial 1.42 Angstrom spacing used
angdeg     # Point to two C atoms and z-axis using degrees to form rhombus cell:
           90  90  60   # http://www.abinit.org/doc/helpfiles/for-v7.8/input_variables/varbas.html#angdeg
# rprim      1.0 0.0 0.0
#            -0.5  8.6602540378E-01  0.0
#            0.0 0.0 1.0
# brvlatt    0
kptopt     1
# chkprim 0

#atom types
natom      2
ntypat     1
typat      1 1
znucl      6             # Carbon
xred       0    0    0   # In reduced coordinates
           2/3  2/3  0  
# xangst # This keyword indicate that the location of the atoms in ANGSTROM
# # will follow, one triplet of number for each atom
# 0.0 0.0 0.0 # Triplet giving the coordinate of atom 1.
# 0.71 1.22975 0.0 # Triplet giving the coordinate of atom 2.

# iscf       1
nband 8

#spgaxor    1             # Hexagonal unit cell axes


#optimzation
ecut       4.0           # Max E_kinetic, in Ha (4 Ha ≈ 100 eV)
optcell    9             # Can change a1 and a2 lengths
ionmov     2             # Movement method
ecutsm     0.5           # Smoothing of energy curve; 0.5 is recomended
ntime      20            # take up to n steps to optimize
dilatmx    1.05          # try plane waves up to this amount larger
toldfe     1.0d-10       # Delta E_tot tolerance (satisfied twice)
strprecon  0.05          # How much to move each step when optimizing acell

#k-point grid
# nshiftk    3
# shiftk     
                         # Monkhorst-Pack grid for graphene
                         # Is 6x6x1
                         # @see Monkhorst, 1976 for derivation of concept
                         # @see Sha, 2002 for 6x6x1 value for graphene
           # 0.0        0.0        0.0 # Γ
           # 0.5        0.0        0.0 # M
           # 0.66666666 0.33333333 0   # K
           # 0.25       0.0        0.0
           # 0.33333333 0.17777777 0.0
           # 0.58333333 0.17777777 0.0


# Copies k points in each direction n times       
ngkpt      6 6 1         # Generates the Monkhorst-Pack grid
# kptopt   1             # kptopt = 1 reduces the 1st zone using symmetry


chksymbreak 0 # ignore symmetry errors