### Modelling single-layer hexagonal boron-nitride
# TODO: setup the experiment for single-layer Carbon
# TODO: setup Carbon pseudopotentials


#First run: stabilize the grid
#Second run: non-self-consistent analysis
ndtset 2


ecut       16.0         # in Ha. 4 Ha ≈108 eV
ngkpt      6 6 1

#Unit cell
acell      5.3178092090E+00  5.3178092090E+00  3.1078015284E+01  # In Bohr radii
angdeg     # Point to two C atoms and z-axis using degrees to form rhombus cell:
           90  90  60   # http://www.abinit.org/doc/helpfiles/for-v7.8/input_variables/varbas.html#angdeg
         
#atom types and locations
natom      2
ntypat     2
typat      1 2
znucl      5 7           # Boron at origin, Nitrogen in cell
xred       0    0    0   # In reduced coordinates
           2/3  2/3  0    


#Dataset 1: usual SCF calculation
prtden1    1               # Output charge density information, for the next set
prtdos1    3               # Output state density information, for analysis
# kptopt1    1             # Automatically generate k-points
# shiftk1    0.5 0.5 0.0   # Recommended for rhombohedral axes. (Shift along z?)

nstep1     10            # Max SCF cycles
toldfe1    1.0d-10       # delta(E_total) threshold (after twice) e-6 for rough values, 10 for more detail, 12 is pro

#Dataset 2: Computing band structure
iscf2      -2            # second run: not selfconsistent
getden2    -1            # 2nd gets density from 1st
nband2     10            # 10 bands (8 good, 2 buffer)
kptopt2    -3            # define 3 segments in Brillouin zone (why?)
ndivk2     20 14 30      # making a circuit with 3 segments,
                         # divided by the given number
kptbounds2 
           0.0  0.0  0.0  # Gamma
           0.5  0.0  0.0  # M
           0.66666666  0.33333333  0.0  # K
           0.0  0.0  0.0  # original Gamma
enunit2    1
tolwfr2    1.0d-10       # Tolerance of <(H-E)^2> allowed for 
                         # non-self-consistent calculations.
                         # Good data comes from 1d-12


chksymbreak 0 # ignore symmetry errors