### Tutorial 3 : understanding lattices
# Crystalline silicon total energy

ndtset  2

# Computing band structure (3.5)
ngkpt   4 4 4
prtden1 1
iscf2   -2             # second run will not be self-consistent
getden2 -1             # second run will get the density from the first run
nband2  8              # 8 bands in the second run (not 5?)
kptopt2  -3             # define 3 segments in Brillouin zone (why?)
ndivk2   10 12 17       # making a circuit with 4 points,
                       # where each segment is divided into the given # of k-points
kptbounds2
        0.5  0.0  0.0  # L point (center of face)
        0.0  0.0  0.0  # Gamma point (center of cell)
        0.5  0.5  0.0  # X points (corner of face)
        1.0  1.0  1.0  # Gamma point of next cell
enunit  1              # Energy output will be in eV, not Hartree.
                       # True for both datasets for consistency of output
tolwfr2 1.0d-10        # Tolerance of <(H-E)^2> for wavefunction; only tol allowed for non-self-consistent calculations


#unit cell
acell   3*10.216         # shorthand for vector.fill
rprim   0.0  0.5  0.5
        0.5  0.0  0.5
        0.5  0.5  0.0

#Optimizing geometry (3.4)
# optcell 1
# ionmov  2
# ecutsm  0.5             # see below
# ntime   10              # max steps for optimizing geometry
# dilatmx 1.05            # try plane waves up to 5% beyond initial geometry size

#atom types
ntypat  1               # only one kinda atom
znucl   14              # which is Si.
                        # Must match specified pseudopotentials!

#define the simulated atoms
natom   2               # there are 2
typat   1 1             # Both of type 1 (Si)
xred                    # Indicated locations to follow,
        0.0  0.0  0.0   # in REDUCED coordinates - # of primitive vector translations
        1/4  1/4  1/4   # http://www.abinit.org/doc/helpfiles/for-v7.2/input_variables/varbas.html#xred

#define planewave basis set
ecut    8.0             # Max E_kinetic, in Hartree
# ecutsm  0.5             # How much to smooth the energy curve while optimizing
                        # geometry. Recommended is 0.5 Ha, must be >0 if optimizing

#define k-point grid
# kptopt  1               # Automatically generate k-pt,
                        # accounting for symmetry
# ngkpt   2 2 2           # 2x2x2 grid based on primitive vectors
                        # of reciprocal space (that form a BCC lattice!),
nshiftk 4               # repeated 4 times, with different shifts
shiftk  0.5  0.5  0.5
        0.5  0.0  0.0   # In cartesian coordinates, this grid is simple cubic, and
        0.0  0.5  0.0   # actually corresponds to the
        0.0  0.0  0.5   # so-called 4x4x4 Monkhorst-Pack grid
# ngkpt1  2 2 2           # How many k-points to generate along
# ngkpt2  4 4 4           # each reciprical axis, in the irreducable
# ngkpt3  8 8 8           # Brillouin zone
# ngkpt4  16 16 16

                     
#define SCF procedure --- approximator?
nstep   10              # Max SCF cycles
toldfe  1.0d-6          # Stops when delta(E_total)
                        # evaluates to less than this value
                        # in Hartree)... twice
                        # 1.0d-6 is usually way too big
diemac  12.0            # Optional. Precondition of SCF cycle.
                        # Indicates model dielectric function used as
                        # standard preconditioner is described in
                        # the "dielng" input variable section
                        # Here, follows recommendation of 12 
                        # for bulk silicon.
                        # Stands for model DIElectric MACroscopic constant